% Logging successfully configured
%%%mzn-stat: initTime=0.0022047
%%%mzn-stat: objective=839
%%%mzn-stat: nodes=413
%%%mzn-stat: restarts=0
%%%mzn-stat: peakDepth=133
%%%mzn-stat: solveTime=0.002644856
%%%mzn-stat: variables=298
%%%mzn-stat: propagators=197
%%%mzn-stat: failures=59
%%%mzn-stat: propagations=2682
%%%mzn-stat: nogoods=59
%%%mzn-stat: numAtomicConstraintsPropagated=0
%%%mzn-stat: allDifferentNumber1TotalHallSetSize=213
%%%mzn-stat: allDifferentNumber1NumberOfConflicts=59
%%%mzn-stat: allDifferentNumber1MaxHallSetSize=19
%%%mzn-stat: allDifferentNumber1PropagationsTotal=534
%%%mzn-stat: allDifferentNumber1PropagationsThatFoundConflict=59
%%%mzn-stat: circuitNumber2PropagationsThatFoundConflict=0
%%%mzn-stat: circuitNumber2TotalFixedEdgesAtConflict=0
%%%mzn-stat: circuitNumber2NumberOfConflicts=0
%%%mzn-stat: circuitNumber2PropagationsThatPruned=26
%%%mzn-stat: circuitNumber2PropagationsTotal=277
%%%mzn-stat: AverageConflictSize=3.2203389830508473
%%%mzn-stat: NumUnitNogoodsLearned=0
%%%mzn-stat: AverageLearnedNogoodLength=3.169491525423729
%%%mzn-stat: AverageBacktrackAmount=0
%%%mzn-stat: AverageLbd=3.1016949152542375
%%%mzn-stat: 2AutonomousSearchNumBackupCalled=117
%%%mzn-stat: 2AutonomousSearchNumPredicatesRemoved=0
%%%mzn-stat: 2AutonomousSearchNumCalls=118
%%%mzn-stat: 2AutonomousSearchNumPredicatesAdded=136
%%%mzn-stat: 2AutonomousSearchAverageSizeOfHeap=1.152542372881356
%%%mzn-stat: 2AutonomousSearchNumAssignedPredicatesEncountered=136
%%%mzn-stat-end
maxleg = 839;
succ = array1d(1..20,[2, 5, 1, 9, 4, 7, 14, 3, 6, 13, 15, 10, 19, 12, 16, 17, 18, 8, 20, 11]);
% time elapsed: 0.30 s
----------
%%%mzn-stat: initTime=0.0022047
%%%mzn-stat: objective=659
%%%mzn-stat: nodes=623
%%%mzn-stat: restarts=0
%%%mzn-stat: peakDepth=133
%%%mzn-stat: solveTime=0.004163801
%%%mzn-stat: variables=298
%%%mzn-stat: propagators=197
%%%mzn-stat: failures=91
%%%mzn-stat: propagations=3749
%%%mzn-stat: nogoods=91
%%%mzn-stat: numAtomicConstraintsPropagated=0
%%%mzn-stat: allDifferentNumber1TotalHallSetSize=425
%%%mzn-stat: allDifferentNumber1NumberOfConflicts=91
%%%mzn-stat: allDifferentNumber1MaxHallSetSize=19
%%%mzn-stat: allDifferentNumber1PropagationsTotal=728
%%%mzn-stat: allDifferentNumber1PropagationsThatFoundConflict=91
%%%mzn-stat: circuitNumber2PropagationsThatFoundConflict=0
%%%mzn-stat: circuitNumber2TotalFixedEdgesAtConflict=0
%%%mzn-stat: circuitNumber2NumberOfConflicts=0
%%%mzn-stat: circuitNumber2PropagationsThatPruned=40
%%%mzn-stat: circuitNumber2PropagationsTotal=371
%%%mzn-stat: AverageConflictSize=4.43956043956044
%%%mzn-stat: NumUnitNogoodsLearned=0
%%%mzn-stat: AverageLearnedNogoodLength=4.813186813186813
%%%mzn-stat: AverageBacktrackAmount=0
%%%mzn-stat: AverageLbd=3.978021978021978
%%%mzn-stat: 2AutonomousSearchNumBackupCalled=227
%%%mzn-stat: 2AutonomousSearchNumPredicatesRemoved=0
%%%mzn-stat: 2AutonomousSearchNumCalls=229
%%%mzn-stat: 2AutonomousSearchNumPredicatesAdded=237
%%%mzn-stat: 2AutonomousSearchAverageSizeOfHeap=1.4672489082969433
%%%mzn-stat: 2AutonomousSearchNumAssignedPredicatesEncountered=336
%%%mzn-stat-end
maxleg = 659;
succ = array1d(1..20,[2, 5, 1, 10, 4, 7, 9, 3, 18, 12, 8, 14, 15, 6, 11, 19, 16, 17, 20, 13]);
% time elapsed: 0.30 s
----------
%%%mzn-stat: initTime=0.0022047
%%%mzn-stat: objective=450
%%%mzn-stat: nodes=861
%%%mzn-stat: restarts=0
%%%mzn-stat: peakDepth=133
%%%mzn-stat: solveTime=0.005403231
%%%mzn-stat: variables=298
%%%mzn-stat: propagators=197
%%%mzn-stat: failures=119
%%%mzn-stat: propagations=5091
%%%mzn-stat: nogoods=119
%%%mzn-stat: numAtomicConstraintsPropagated=0
%%%mzn-stat: allDifferentNumber1TotalHallSetSize=509
%%%mzn-stat: allDifferentNumber1NumberOfConflicts=119
%%%mzn-stat: allDifferentNumber1MaxHallSetSize=19
%%%mzn-stat: allDifferentNumber1PropagationsTotal=983
%%%mzn-stat: allDifferentNumber1PropagationsThatFoundConflict=119
%%%mzn-stat: circuitNumber2PropagationsThatFoundConflict=0
%%%mzn-stat: circuitNumber2TotalFixedEdgesAtConflict=0
%%%mzn-stat: circuitNumber2NumberOfConflicts=0
%%%mzn-stat: circuitNumber2PropagationsThatPruned=64
%%%mzn-stat: circuitNumber2PropagationsTotal=512
%%%mzn-stat: AverageConflictSize=4.042016806722689
%%%mzn-stat: NumUnitNogoodsLearned=0
%%%mzn-stat: AverageLearnedNogoodLength=4.310924369747899
%%%mzn-stat: AverageBacktrackAmount=0
%%%mzn-stat: AverageLbd=3.638655462184874
%%%mzn-stat: 2AutonomousSearchNumBackupCalled=329
%%%mzn-stat: 2AutonomousSearchNumPredicatesRemoved=0
%%%mzn-stat: 2AutonomousSearchNumCalls=332
%%%mzn-stat: 2AutonomousSearchNumPredicatesAdded=306
%%%mzn-stat: 2AutonomousSearchAverageSizeOfHeap=1.677710843373494
%%%mzn-stat: 2AutonomousSearchNumAssignedPredicatesEncountered=557
%%%mzn-stat-end
maxleg = 450;
succ = array1d(1..20,[2, 5, 8, 1, 7, 9, 12, 11, 18, 4, 15, 14, 10, 6, 13, 19, 16, 17, 20, 3]);
% time elapsed: 0.30 s
----------
%%%mzn-stat: initTime=0.0022047
%%%mzn-stat: objective=430
%%%mzn-stat: nodes=1031
%%%mzn-stat: restarts=0
%%%mzn-stat: peakDepth=133
%%%mzn-stat: solveTime=0.00606303
%%%mzn-stat: variables=298
%%%mzn-stat: propagators=197
%%%mzn-stat: failures=130
%%%mzn-stat: propagations=5999
%%%mzn-stat: nogoods=130
%%%mzn-stat: numAtomicConstraintsPropagated=0
%%%mzn-stat: allDifferentNumber1TotalHallSetSize=538
%%%mzn-stat: allDifferentNumber1NumberOfConflicts=130
%%%mzn-stat: allDifferentNumber1MaxHallSetSize=19
%%%mzn-stat: allDifferentNumber1PropagationsTotal=1097
%%%mzn-stat: allDifferentNumber1PropagationsThatFoundConflict=130
%%%mzn-stat: circuitNumber2PropagationsThatFoundConflict=0
%%%mzn-stat: circuitNumber2TotalFixedEdgesAtConflict=0
%%%mzn-stat: circuitNumber2NumberOfConflicts=0
%%%mzn-stat: circuitNumber2PropagationsThatPruned=73
%%%mzn-stat: circuitNumber2PropagationsTotal=586
%%%mzn-stat: AverageConflictSize=3.923076923076923
%%%mzn-stat: NumUnitNogoodsLearned=0
%%%mzn-stat: AverageLearnedNogoodLength=4.153846153846154
%%%mzn-stat: AverageBacktrackAmount=0
%%%mzn-stat: AverageLbd=3.523076923076923
%%%mzn-stat: 2AutonomousSearchNumBackupCalled=422
%%%mzn-stat: 2AutonomousSearchNumPredicatesRemoved=0
%%%mzn-stat: 2AutonomousSearchNumCalls=426
%%%mzn-stat: 2AutonomousSearchNumPredicatesAdded=332
%%%mzn-stat: 2AutonomousSearchAverageSizeOfHeap=1.8333333333333333
%%%mzn-stat: 2AutonomousSearchNumAssignedPredicatesEncountered=781
%%%mzn-stat-end
maxleg = 430;
succ = array1d(1..20,[2, 5, 8, 1, 7, 9, 12, 11, 18, 4, 17, 14, 10, 6, 13, 19, 16, 3, 20, 15]);
% time elapsed: 0.30 s
----------
%%%mzn-stat: initTime=0.0022047
%%%mzn-stat: objective=415
%%%mzn-stat: nodes=1151
%%%mzn-stat: restarts=0
%%%mzn-stat: peakDepth=133
%%%mzn-stat: solveTime=0.006401263
%%%mzn-stat: variables=298
%%%mzn-stat: propagators=197
%%%mzn-stat: failures=134
%%%mzn-stat: propagations=6480
%%%mzn-stat: nogoods=134
%%%mzn-stat: numAtomicConstraintsPropagated=0
%%%mzn-stat: allDifferentNumber1TotalHallSetSize=565
%%%mzn-stat: allDifferentNumber1NumberOfConflicts=134
%%%mzn-stat: allDifferentNumber1MaxHallSetSize=19
%%%mzn-stat: allDifferentNumber1PropagationsTotal=1140
%%%mzn-stat: allDifferentNumber1PropagationsThatFoundConflict=134
%%%mzn-stat: circuitNumber2PropagationsThatFoundConflict=0
%%%mzn-stat: circuitNumber2TotalFixedEdgesAtConflict=0
%%%mzn-stat: circuitNumber2NumberOfConflicts=0
%%%mzn-stat: circuitNumber2PropagationsThatPruned=77
%%%mzn-stat: circuitNumber2PropagationsTotal=614
%%%mzn-stat: AverageConflictSize=4.014925373134329
%%%mzn-stat: NumUnitNogoodsLearned=0
%%%mzn-stat: AverageLearnedNogoodLength=4.223880597014926
%%%mzn-stat: AverageBacktrackAmount=0
%%%mzn-stat: AverageLbd=3.5522388059701493
%%%mzn-stat: 2AutonomousSearchNumBackupCalled=515
%%%mzn-stat: 2AutonomousSearchNumPredicatesRemoved=0
%%%mzn-stat: 2AutonomousSearchNumCalls=520
%%%mzn-stat: 2AutonomousSearchNumPredicatesAdded=374
%%%mzn-stat: 2AutonomousSearchAverageSizeOfHeap=1.9730769230769232
%%%mzn-stat: 2AutonomousSearchNumAssignedPredicatesEncountered=1026
%%%mzn-stat-end
maxleg = 415;
succ = array1d(1..20,[2, 5, 8, 1, 12, 9, 6, 11, 18, 4, 17, 14, 10, 7, 13, 19, 16, 3, 20, 15]);
% time elapsed: 0.30 s
----------
%%%mzn-stat: initTime=0.0022047
%%%mzn-stat: objective=385
%%%mzn-stat: nodes=1355
%%%mzn-stat: restarts=0
%%%mzn-stat: peakDepth=133
%%%mzn-stat: solveTime=0.007690742
%%%mzn-stat: variables=298
%%%mzn-stat: propagators=197
%%%mzn-stat: failures=164
%%%mzn-stat: propagations=7881
%%%mzn-stat: nogoods=164
%%%mzn-stat: numAtomicConstraintsPropagated=0
%%%mzn-stat: allDifferentNumber1TotalHallSetSize=675
%%%mzn-stat: allDifferentNumber1NumberOfConflicts=164
%%%mzn-stat: allDifferentNumber1MaxHallSetSize=19
%%%mzn-stat: allDifferentNumber1PropagationsTotal=1351
%%%mzn-stat: allDifferentNumber1PropagationsThatFoundConflict=164
%%%mzn-stat: circuitNumber2PropagationsThatFoundConflict=0
%%%mzn-stat: circuitNumber2TotalFixedEdgesAtConflict=0
%%%mzn-stat: circuitNumber2NumberOfConflicts=0
%%%mzn-stat: circuitNumber2PropagationsThatPruned=94
%%%mzn-stat: circuitNumber2PropagationsTotal=728
%%%mzn-stat: AverageConflictSize=4.140243902439025
%%%mzn-stat: NumUnitNogoodsLearned=0
%%%mzn-stat: AverageLearnedNogoodLength=4.560975609756097
%%%mzn-stat: AverageBacktrackAmount=0
%%%mzn-stat: AverageLbd=3.6036585365853657
%%%mzn-stat: 2AutonomousSearchNumBackupCalled=602
%%%mzn-stat: 2AutonomousSearchNumPredicatesRemoved=0
%%%mzn-stat: 2AutonomousSearchNumCalls=608
%%%mzn-stat: 2AutonomousSearchNumPredicatesAdded=548
%%%mzn-stat: 2AutonomousSearchAverageSizeOfHeap=2.2039473684210527
%%%mzn-stat: 2AutonomousSearchNumAssignedPredicatesEncountered=1340
%%%mzn-stat-end
maxleg = 385;
succ = array1d(1..20,[4, 5, 8, 10, 1, 7, 12, 18, 6, 13, 3, 14, 15, 2, 19, 17, 11, 9, 20, 16]);
% time elapsed: 0.30 s
----------
%%%mzn-stat: initTime=0.0022047
%%%mzn-stat: objective=364
%%%mzn-stat: nodes=1465
%%%mzn-stat: restarts=0
%%%mzn-stat: peakDepth=133
%%%mzn-stat: solveTime=0.008102186
%%%mzn-stat: variables=298
%%%mzn-stat: propagators=197
%%%mzn-stat: failures=170
%%%mzn-stat: propagations=8411
%%%mzn-stat: nogoods=170
%%%mzn-stat: numAtomicConstraintsPropagated=0
%%%mzn-stat: allDifferentNumber1TotalHallSetSize=700
%%%mzn-stat: allDifferentNumber1NumberOfConflicts=170
%%%mzn-stat: allDifferentNumber1MaxHallSetSize=19
%%%mzn-stat: allDifferentNumber1PropagationsTotal=1400
%%%mzn-stat: allDifferentNumber1PropagationsThatFoundConflict=170
%%%mzn-stat: circuitNumber2PropagationsThatFoundConflict=0
%%%mzn-stat: circuitNumber2TotalFixedEdgesAtConflict=0
%%%mzn-stat: circuitNumber2NumberOfConflicts=0
%%%mzn-stat: circuitNumber2PropagationsThatPruned=98
%%%mzn-stat: circuitNumber2PropagationsTotal=754
%%%mzn-stat: AverageConflictSize=4.211764705882353
%%%mzn-stat: NumUnitNogoodsLearned=0
%%%mzn-stat: AverageLearnedNogoodLength=4.694117647058824
%%%mzn-stat: AverageBacktrackAmount=0
%%%mzn-stat: AverageLbd=3.652941176470588
%%%mzn-stat: 2AutonomousSearchNumBackupCalled=686
%%%mzn-stat: 2AutonomousSearchNumPredicatesRemoved=0
%%%mzn-stat: 2AutonomousSearchNumCalls=693
%%%mzn-stat: 2AutonomousSearchNumPredicatesAdded=656
%%%mzn-stat: 2AutonomousSearchAverageSizeOfHeap=2.4531024531024532
%%%mzn-stat: 2AutonomousSearchNumAssignedPredicatesEncountered=1700
%%%mzn-stat-end
maxleg = 364;
succ = array1d(1..20,[4, 5, 8, 10, 1, 7, 12, 18, 6, 13, 15, 14, 19, 2, 16, 17, 3, 9, 20, 11]);
% time elapsed: 0.30 s
----------
==========
% time elapsed: 0.30 s
%%%mzn-stat: initTime=0.0022047
%%%mzn-stat: objective=364
%%%mzn-stat: nodes=1465
%%%mzn-stat: restarts=0
%%%mzn-stat: peakDepth=133
%%%mzn-stat: solveTime=0.008185339
%%%mzn-stat: variables=298
%%%mzn-stat: propagators=197
%%%mzn-stat: failures=171
%%%mzn-stat: propagations=8497
%%%mzn-stat: nogoods=171
%%%mzn-stat: numAtomicConstraintsPropagated=0
%%%mzn-stat: allDifferentNumber1TotalHallSetSize=720
%%%mzn-stat: allDifferentNumber1NumberOfConflicts=171
%%%mzn-stat: allDifferentNumber1MaxHallSetSize=20
%%%mzn-stat: allDifferentNumber1PropagationsTotal=1402
%%%mzn-stat: allDifferentNumber1PropagationsThatFoundConflict=171
%%%mzn-stat: circuitNumber2PropagationsThatFoundConflict=0
%%%mzn-stat: circuitNumber2TotalFixedEdgesAtConflict=0
%%%mzn-stat: circuitNumber2NumberOfConflicts=0
%%%mzn-stat: circuitNumber2PropagationsThatPruned=98
%%%mzn-stat: circuitNumber2PropagationsTotal=755
%%%mzn-stat: AverageConflictSize=4.286549707602339
%%%mzn-stat: NumUnitNogoodsLearned=1
%%%mzn-stat: AverageLearnedNogoodLength=4.6725146198830405
%%%mzn-stat: AverageBacktrackAmount=0
%%%mzn-stat: AverageLbd=3.6374269005847952
%%%mzn-stat: 2AutonomousSearchNumBackupCalled=686
%%%mzn-stat: 2AutonomousSearchNumPredicatesRemoved=0
%%%mzn-stat: 2AutonomousSearchNumCalls=693
%%%mzn-stat: 2AutonomousSearchNumPredicatesAdded=791
%%%mzn-stat: 2AutonomousSearchAverageSizeOfHeap=2.4531024531024532
%%%mzn-stat: 2AutonomousSearchNumAssignedPredicatesEncountered=1700
%%%mzn-stat-end
